
Gurobi 11.0.3 (linux64) logging started Sun Aug 24 14:34:28 2025

Set parameter LogFile to value "/home/yihong/Coding/OR_SUC/SUC_ALSO_results_bigM100000_thread4/case24_ieee_rts_theta0.1_epsilon0.2_gurobi_seed10000_num_gen10_N_WDR50_load_scaling_factor2_slfa_also_T2quadra_cost.txt"
Set parameter TimeLimit to value 3600
Gurobi Optimizer version 11.0.3 build v11.0.3rc0 (linux64 - "Ubuntu 20.04.6 LTS")

CPU model: AMD EPYC 7532 32-Core Processor, instruction set [SSE2|AVX|AVX2]
Thread count: 64 physical cores, 128 logical processors, using up to 4 threads

Academic license 2399124 - for non-commercial use only - registered to yi___@ed.ac.uk
Optimize a model with 2150 rows, 371 columns and 37134 nonzeros
Model fingerprint: 0x81b62b7c
Model has 20 quadratic constraints
Variable types: 351 continuous, 20 integer (20 binary)
Coefficient statistics:
  Matrix range     [4e-04, 3e+04]
  QMatrix range    [2e-03, 7e-03]
  QLMatrix range   [1e+00, 4e+02]
  Objective range  [1e+00, 1e+00]
  Bounds range     [1e+00, 1e+00]
  RHS range        [5e-02, 1e+04]
Presolve removed 1259 rows and 176 columns
Presolve time: 0.02s
Presolved: 891 rows, 195 columns, 16344 nonzeros
Presolved model has 20 quadratic constraint(s)
Variable types: 175 continuous, 20 integer (20 binary)

Root relaxation: objective 3.648518e+03, 126 iterations, 0.00 seconds (0.01 work units)

    Nodes    |    Current Node    |     Objective Bounds      |     Work
 Expl Unexpl |  Obj  Depth IntInf | Incumbent    BestBd   Gap | It/Node Time

     0     0 3648.51824    0    6          - 3648.51824      -     -    0s
     0     0 122500.736    0    8          - 122500.736      -     -    0s
     0     0 123079.526    0    8          - 123079.526      -     -    0s
     0     0 124592.918    0   10          - 124592.918      -     -    0s
     0     0 124720.704    0   10          - 124720.704      -     -    0s
H    0     0                    139452.62129 124720.704  10.6%     -    0s
     0     0 125152.717    0    4 139452.621 125152.717  10.3%     -    0s
H    0     0                    125733.97905 125172.874  0.45%     -    0s
     0     0 125500.683    0    - 125733.979 125500.683  0.19%     -    0s
     0     0 125500.683    0    - 125733.979 125500.683  0.19%     -    0s
     0     0 125500.683    0    - 125733.979 125500.683  0.19%     -    0s
     0     0 125500.683    0    - 125733.979 125500.683  0.19%     -    0s
     0     0 125500.683    0    - 125733.979 125500.683  0.19%     -    0s
     0     0 125500.683    0    - 125733.979 125500.683  0.19%     -    0s
     0     0 125500.683    0    - 125733.979 125500.683  0.19%     -    0s
     0     0 125500.683    0    - 125733.979 125500.683  0.19%     -    0s
     0     0 125500.683    0    - 125733.979 125500.683  0.19%     -    0s
     0     0 125500.683    0    - 125733.979 125500.683  0.19%     -    0s
     0     0 125500.683    0    4 125733.979 125500.683  0.19%     -    0s
     0     0 125500.683    0    4 125733.979 125500.683  0.19%     -    0s
     0     0 125500.683    0    2 125733.979 125500.683  0.19%     -    0s
     0     0 125500.683    0    2 125733.979 125500.683  0.19%     -    0s
H    0     0                    125500.68316 125500.683  0.00%     -    0s

Cutting planes:
  Cover: 1
  Implied bound: 4
  Flow cover: 3

Explored 1 nodes (336 simplex iterations) in 0.43 seconds (0.46 work units)
Thread count was 4 (of 128 available processors)

Solution count 3: 125501 125734 139453 

Optimal solution found (tolerance 1.00e-03)
Warning: max constraint violation (2.1087e-09) exceeds tolerance
Best objective 1.255006831568e+05, best bound 1.255006831259e+05, gap 0.0000%
